100
489 453
423 775
589 66
83 91
324 913
885 269
325 20
679 739
356 936
208 338
483 127
917 602
592 39
315 500
729 763
772 876
520 977
315 927
917 890
92 397
602 357
169 753
398 193
969 897
888 248
7 824
448 982
510 247
836 797
634 876
408 585
319 73
0 685
127 183
296 835
979 687
494 690
564 705
340 818
741 174
990 452
942 767
646 39
249 168
394 235
81 302
735 108
618 810
194 706
68 853
82 395
54 467
783 643
164 787
594 714
489 724
601 95
747 514
613 48
868 399
371 187
18 170
65 474
35 816
421 130
526 132
919 508
101 452
314 866
712 870
195 605
691 827
710 435
341 964
808 301
699 425
860 634
894 222
76 758
943 624
579 983
440 40
576 230
246 144
77 952
51 911
815 602
230 947
299 352
839 460
687 507
905 238
392 155
752 40
915 366
332 865
957 337
537 300
717 131
621 751
